371
93
244
201
239
164
161
126
58
126
217
131
80
154
147
101
104
207
260
260
157
307
248
223
82
112
285
146
146
100
165
97
86
119
139
262
111
179
140
64
120
98
175
118
117
101
185
167
99
164
108
176
110
278
191
80
233
293
278
189
442
309
80
144
134
189
94
147
107
71
113
56
154
211
251
97
181
196
83
181
237
206
97
114
150
221
142
83
145
110
89
189
351
216
95
164
159
134
106
512
